Minimize
 +  5 x1 +  18 x2 +  9 x3 +  x4 +  13 x5 +  x6 +  9 x7 +  13 x8 +  18 x9 +  18 x10 +  4 x11 +  8 x12 +  9 x13 +  15 x14 +  9 x15 +  19 x16 +  11 x17 +  4 x18 +  7 x19 +  9 x20 +  9 x21 +  11 x22 +  17 x23 +  9 x24 +  6 x25 +  9 x26 +  3 x27 +  10 x28 +  4 x29 +  5 x30 +  12 x31 +  9 x32 +  3 x33 +  10 x34 +  6 x35 +  3 x36 +  14 x37 +  2 x38 +  11 x39 +  13 x40 +  17 x41 +  12 x42 +  5 x43 +  x44 +  5 x45 +  12 x46 +  13 x47 +  13 x48 +  7 x49 +  6 x50 +  6 x51 +  9 x52 +  10 x53 +  3 x54 +  16 x55 +  17 x56 +  9 x57 +  2 x58 +  18 x59 +  12 x60 +  15 x61 +  10 x62 +  10 x63 +  7 x64 +  8 x65 +  2 x66 +  19 x67 +  11 x68 +  11 x69 +  2 x70 +  10 x71 +  3 x72 +  11 x73 +  11 x74 +  17 x75 +  19 x76 +  8 x77 +  13 x78 +  18 x79 +  11 x80 +  4 x81 +  17 x82 +  13 x83 +  4 x84 +  4 x85 +  15 x86 +  13 x87 +  x88 +  17 x89 +  4 x90 +  19 x91 +  16 x92 +  x93 +  13 x94 +  19 x95 +  9 x96 +  19 x97 +  12 x98 +  16 x99 +  11 x100 +  7 x101 +  19 x102 +  8 x103 +  3 x104 +  18 x105 +  15 x106 +  18 x107 +  14 x108 +  10 x109 +  10 x110 +  10 x111 +  18 x112 +  10 x113 +  12 x114 +  11 x115 +  11 x116 +  6 x117 +  15 x118 +  2 x119 +  12 x120 +  18 x121 +  14 x122 +  11 x123 +  4 x124 +  4 x125 +  15 x126 +  8 x127 +  18 x128 +  13 x129 +  18 x130 +  19 x131 +  16 x132 +  15 x133 +  8 x134 +  x135 +  8 x136 +  9 x137 +  11 x138 +  5 x139 +  19 x140 +  11 x141 +  7 x142 +  7 x143 +  14 x144 +  9 x145 +  10 x146 +  19 x147 +  12 x148 +  12 x149 +  x150 +  x151 +  15 x152 +  3 x153 +  8 x154 +  12 x155 +  11 x156 +  15 x157 +  14 x158 +  x159 +  10 x160 +  9 x161 +  16 x162 +  x163 +  10 x164 +  9 x165 +  18 x166 +  13 x167 +  14 x168 +  16 x169 +  5 x170 +  12 x171 +  19 x172 +  10 x173 +  4 x174 +  15 x175 +  6 x176 +  16 x177 +  2 x178 +  3 x179 +  7 x180 +  14 x181 +  15 x182 +  16 x183 +  14 x184 +  12 x185 +  15 x186 +  6 x187 +  8 x188 +  19 x189 +  8 x190 +  16 x191 +  13 x192 +  6 x193 +  x194 +  13 x195 +  4 x196 +  x197 +  5 x198 +  15 x199 +  4 x200 +  8 x201 +  14 x202 +  17 x203 +  10 x204 +  14 x205 +  5 x206 +  x207 +  17 x208 +  x209 +  13 x210 +  6 x211 +  7 x212 +  15 x213 +  11 x214 +  17 x215 +  2 x216 +  14 x217 +  2 x218 +  4 x219 +  4 x220 +  11 x221 +  3 x222 +  10 x223 +  17 x224 +  13 x225 +  x226 +  7 x227 +  8 x228 +  12 x229 +  12 x230 +  13 x231 +  16 x232 +  11 x233 +  6 x234 +  18 x235 +  4 x236 +  5 x237 +  8 x238 +  7 x239 +  12 x240 +  11 x241 +  8 x242 +  11 x243 +  5 x244 +  5 x245 +  3 x246 +  10 x247 +  17 x248 +  5 x249 +  2 x250 +  5 x251 +  17 x252 +  10 x253 +  3 x254 +  3 x255 +  9 x256 +  12 x257 +  10 x258 +  8 x259 +  14 x260 +  2 x261 +  4 x262 +  7 x263 +  3 x264 +  19 x265 +  8 x266 +  3 x267 +  12 x268 +  17 x269 +  12 x270 +  13 x271 +  x272 +  7 x273 +  2 x274 +  12 x275 +  13 x276 +  7 x277 +  16 x278 +  5 x279 +  8 x280 +  2 x281 +  8 x282 +  17 x283 +  8 x284 +  6 x285 +  2 x286 +  9 x287 +  15 x288 +  15 x289 +  8 x290 +  3 x291 +  15 x292 +  8 x293 +  5 x294 +  11 x295 +  6 x296 +  12 x297 +  x298 +  13 x299 +  18 x300 +  14 x301 +  16 x302 +  3 x303 +  8 x304 +  5 x305 +  16 x306 +  2 x307 +  8 x308 +  7 x309 +  18 x310 +  16 x311 +  13 x312 +  8 x313 +  5 x314 +  9 x315 +  19 x316 +  14 x317 +  18 x318 +  11 x319 +  19 x320 +  7 x321 +  6 x322 +  14 x323 +  6 x324 +  11 x325 +  19 x326 +  7 x327 +  4 x328 +  2 x329 +  13 x330 +  12 x331 +  3 x332 +  10 x333 +  11 x334 +  5 x335 +  5 x336 +  10 x337 +  11 x338 +  19 x339 +  16 x340 +  17 x341 +  x342 +  6 x343 +  14 x344 +  7 x345 +  19 x346 +  5 x347 +  3 x348 +  11 x349 +  9 x350 +  4 x351 +  15 x352 +  10 x353 +  x354 +  13 x355 +  10 x356 +  10 x357 +  x358 +  17 x359 +  4 x360 +  12 x361 +  x362 +  9 x363 +  11 x364 +  7 x365 +  12 x366 +  18 x367 +  19 x368 +  2 x369 +  6 x370 +  7 x371 +  x372 +  19 x373 +  9 x374 +  19 x375 +  8 x376 +  5 x377 +  14 x378 +  8 x379 +  14 x380 +  18 x381 +  17 x382 +  6 x383 +  4 x384 +  14 x385 +  10 x386 +  x387 +  15 x388 +  10 x389 +  13 x390 +  18 x391 +  3 x392 +  14 x393 +  18 x394 +  19 x395 +  19 x396 +  3 x397 +  19 x398 +  x399 +  7 x400
Subject To
 +  x1 +  x21 +  x41 +  x61 +  x81 +  x101 +  x121 +  x141 +  x161 +  x181 +  x201 +  x221 +  x241 +  x261 +  x281 +  x301 +  x321 +  x341 +  x361 +  x381 = 1
 +  x2 +  x22 +  x42 +  x62 +  x82 +  x102 +  x122 +  x142 +  x162 +  x182 +  x202 +  x222 +  x242 +  x262 +  x282 +  x302 +  x322 +  x342 +  x362 +  x382 = 1
 +  x3 +  x23 +  x43 +  x63 +  x83 +  x103 +  x123 +  x143 +  x163 +  x183 +  x203 +  x223 +  x243 +  x263 +  x283 +  x303 +  x323 +  x343 +  x363 +  x383 = 1
 +  x4 +  x24 +  x44 +  x64 +  x84 +  x104 +  x124 +  x144 +  x164 +  x184 +  x204 +  x224 +  x244 +  x264 +  x284 +  x304 +  x324 +  x344 +  x364 +  x384 = 1
 +  x5 +  x25 +  x45 +  x65 +  x85 +  x105 +  x125 +  x145 +  x165 +  x185 +  x205 +  x225 +  x245 +  x265 +  x285 +  x305 +  x325 +  x345 +  x365 +  x385 = 1
 +  x6 +  x26 +  x46 +  x66 +  x86 +  x106 +  x126 +  x146 +  x166 +  x186 +  x206 +  x226 +  x246 +  x266 +  x286 +  x306 +  x326 +  x346 +  x366 +  x386 = 1
 +  x7 +  x27 +  x47 +  x67 +  x87 +  x107 +  x127 +  x147 +  x167 +  x187 +  x207 +  x227 +  x247 +  x267 +  x287 +  x307 +  x327 +  x347 +  x367 +  x387 = 1
 +  x8 +  x28 +  x48 +  x68 +  x88 +  x108 +  x128 +  x148 +  x168 +  x188 +  x208 +  x228 +  x248 +  x268 +  x288 +  x308 +  x328 +  x348 +  x368 +  x388 = 1
 +  x9 +  x29 +  x49 +  x69 +  x89 +  x109 +  x129 +  x149 +  x169 +  x189 +  x209 +  x229 +  x249 +  x269 +  x289 +  x309 +  x329 +  x349 +  x369 +  x389 = 1
 +  x10 +  x30 +  x50 +  x70 +  x90 +  x110 +  x130 +  x150 +  x170 +  x190 +  x210 +  x230 +  x250 +  x270 +  x290 +  x310 +  x330 +  x350 +  x370 +  x390 = 1
 +  x11 +  x31 +  x51 +  x71 +  x91 +  x111 +  x131 +  x151 +  x171 +  x191 +  x211 +  x231 +  x251 +  x271 +  x291 +  x311 +  x331 +  x351 +  x371 +  x391 = 1
 +  x12 +  x32 +  x52 +  x72 +  x92 +  x112 +  x132 +  x152 +  x172 +  x192 +  x212 +  x232 +  x252 +  x272 +  x292 +  x312 +  x332 +  x352 +  x372 +  x392 = 1
 +  x13 +  x33 +  x53 +  x73 +  x93 +  x113 +  x133 +  x153 +  x173 +  x193 +  x213 +  x233 +  x253 +  x273 +  x293 +  x313 +  x333 +  x353 +  x373 +  x393 = 1
 +  x14 +  x34 +  x54 +  x74 +  x94 +  x114 +  x134 +  x154 +  x174 +  x194 +  x214 +  x234 +  x254 +  x274 +  x294 +  x314 +  x334 +  x354 +  x374 +  x394 = 1
 +  x15 +  x35 +  x55 +  x75 +  x95 +  x115 +  x135 +  x155 +  x175 +  x195 +  x215 +  x235 +  x255 +  x275 +  x295 +  x315 +  x335 +  x355 +  x375 +  x395 = 1
 +  x16 +  x36 +  x56 +  x76 +  x96 +  x116 +  x136 +  x156 +  x176 +  x196 +  x216 +  x236 +  x256 +  x276 +  x296 +  x316 +  x336 +  x356 +  x376 +  x396 = 1
 +  x17 +  x37 +  x57 +  x77 +  x97 +  x117 +  x137 +  x157 +  x177 +  x197 +  x217 +  x237 +  x257 +  x277 +  x297 +  x317 +  x337 +  x357 +  x377 +  x397 = 1
 +  x18 +  x38 +  x58 +  x78 +  x98 +  x118 +  x138 +  x158 +  x178 +  x198 +  x218 +  x238 +  x258 +  x278 +  x298 +  x318 +  x338 +  x358 +  x378 +  x398 = 1
 +  x19 +  x39 +  x59 +  x79 +  x99 +  x119 +  x139 +  x159 +  x179 +  x199 +  x219 +  x239 +  x259 +  x279 +  x299 +  x319 +  x339 +  x359 +  x379 +  x399 = 1
 +  x20 +  x40 +  x60 +  x80 +  x100 +  x120 +  x140 +  x160 +  x180 +  x200 +  x220 +  x240 +  x260 +  x280 +  x300 +  x320 +  x340 +  x360 +  x380 +  x400 = 1
 +  x1 +  x2 +  x3 +  x4 +  x5 +  x6 +  x7 +  x8 +  x9 +  x10 +  x11 +  x12 +  x13 +  x14 +  x15 +  x16 +  x17 +  x18 +  x19 +  x20 = 1
 +  x21 +  x22 +  x23 +  x24 +  x25 +  x26 +  x27 +  x28 +  x29 +  x30 +  x31 +  x32 +  x33 +  x34 +  x35 +  x36 +  x37 +  x38 +  x39 +  x40 = 1
 +  x41 +  x42 +  x43 +  x44 +  x45 +  x46 +  x47 +  x48 +  x49 +  x50 +  x51 +  x52 +  x53 +  x54 +  x55 +  x56 +  x57 +  x58 +  x59 +  x60 = 1
 +  x61 +  x62 +  x63 +  x64 +  x65 +  x66 +  x67 +  x68 +  x69 +  x70 +  x71 +  x72 +  x73 +  x74 +  x75 +  x76 +  x77 +  x78 +  x79 +  x80 = 1
 +  x81 +  x82 +  x83 +  x84 +  x85 +  x86 +  x87 +  x88 +  x89 +  x90 +  x91 +  x92 +  x93 +  x94 +  x95 +  x96 +  x97 +  x98 +  x99 +  x100 = 1
 +  x101 +  x102 +  x103 +  x104 +  x105 +  x106 +  x107 +  x108 +  x109 +  x110 +  x111 +  x112 +  x113 +  x114 +  x115 +  x116 +  x117 +  x118 +  x119 +  x120 = 1
 +  x121 +  x122 +  x123 +  x124 +  x125 +  x126 +  x127 +  x128 +  x129 +  x130 +  x131 +  x132 +  x133 +  x134 +  x135 +  x136 +  x137 +  x138 +  x139 +  x140 = 1
 +  x141 +  x142 +  x143 +  x144 +  x145 +  x146 +  x147 +  x148 +  x149 +  x150 +  x151 +  x152 +  x153 +  x154 +  x155 +  x156 +  x157 +  x158 +  x159 +  x160 = 1
 +  x161 +  x162 +  x163 +  x164 +  x165 +  x166 +  x167 +  x168 +  x169 +  x170 +  x171 +  x172 +  x173 +  x174 +  x175 +  x176 +  x177 +  x178 +  x179 +  x180 = 1
 +  x181 +  x182 +  x183 +  x184 +  x185 +  x186 +  x187 +  x188 +  x189 +  x190 +  x191 +  x192 +  x193 +  x194 +  x195 +  x196 +  x197 +  x198 +  x199 +  x200 = 1
 +  x201 +  x202 +  x203 +  x204 +  x205 +  x206 +  x207 +  x208 +  x209 +  x210 +  x211 +  x212 +  x213 +  x214 +  x215 +  x216 +  x217 +  x218 +  x219 +  x220 = 1
 +  x221 +  x222 +  x223 +  x224 +  x225 +  x226 +  x227 +  x228 +  x229 +  x230 +  x231 +  x232 +  x233 +  x234 +  x235 +  x236 +  x237 +  x238 +  x239 +  x240 = 1
 +  x241 +  x242 +  x243 +  x244 +  x245 +  x246 +  x247 +  x248 +  x249 +  x250 +  x251 +  x252 +  x253 +  x254 +  x255 +  x256 +  x257 +  x258 +  x259 +  x260 = 1
 +  x261 +  x262 +  x263 +  x264 +  x265 +  x266 +  x267 +  x268 +  x269 +  x270 +  x271 +  x272 +  x273 +  x274 +  x275 +  x276 +  x277 +  x278 +  x279 +  x280 = 1
 +  x281 +  x282 +  x283 +  x284 +  x285 +  x286 +  x287 +  x288 +  x289 +  x290 +  x291 +  x292 +  x293 +  x294 +  x295 +  x296 +  x297 +  x298 +  x299 +  x300 = 1
 +  x301 +  x302 +  x303 +  x304 +  x305 +  x306 +  x307 +  x308 +  x309 +  x310 +  x311 +  x312 +  x313 +  x314 +  x315 +  x316 +  x317 +  x318 +  x319 +  x320 = 1
 +  x321 +  x322 +  x323 +  x324 +  x325 +  x326 +  x327 +  x328 +  x329 +  x330 +  x331 +  x332 +  x333 +  x334 +  x335 +  x336 +  x337 +  x338 +  x339 +  x340 = 1
 +  x341 +  x342 +  x343 +  x344 +  x345 +  x346 +  x347 +  x348 +  x349 +  x350 +  x351 +  x352 +  x353 +  x354 +  x355 +  x356 +  x357 +  x358 +  x359 +  x360 = 1
 +  x361 +  x362 +  x363 +  x364 +  x365 +  x366 +  x367 +  x368 +  x369 +  x370 +  x371 +  x372 +  x373 +  x374 +  x375 +  x376 +  x377 +  x378 +  x379 +  x380 = 1
 +  x381 +  x382 +  x383 +  x384 +  x385 +  x386 +  x387 +  x388 +  x389 +  x390 +  x391 +  x392 +  x393 +  x394 +  x395 +  x396 +  x397 +  x398 +  x399 +  x400 = 1
 -1 x2 -1 x21 >= -1
 -1 x3 -1 x22 -1 x41 >= -1
 -1 x4 -1 x23 -1 x42 -1 x61 >= -1
 -1 x5 -1 x24 -1 x43 -1 x62 -1 x81 >= -1
 -1 x6 -1 x25 -1 x44 -1 x63 -1 x82 -1 x101 >= -1
 -1 x7 -1 x26 -1 x45 -1 x64 -1 x83 -1 x102 -1 x121 >= -1
 -1 x8 -1 x27 -1 x46 -1 x65 -1 x84 -1 x103 -1 x122 -1 x141 >= -1
 -1 x9 -1 x28 -1 x47 -1 x66 -1 x85 -1 x104 -1 x123 -1 x142 -1 x161 >= -1
 -1 x10 -1 x29 -1 x48 -1 x67 -1 x86 -1 x105 -1 x124 -1 x143 -1 x162 -1 x181 >= -1
 -1 x11 -1 x30 -1 x49 -1 x68 -1 x87 -1 x106 -1 x125 -1 x144 -1 x163 -1 x182 -1 x201 >= -1
 -1 x12 -1 x31 -1 x50 -1 x69 -1 x88 -1 x107 -1 x126 -1 x145 -1 x164 -1 x183 -1 x202 -1 x221 >= -1
 -1 x13 -1 x32 -1 x51 -1 x70 -1 x89 -1 x108 -1 x127 -1 x146 -1 x165 -1 x184 -1 x203 -1 x222 -1 x241 >= -1
 -1 x14 -1 x33 -1 x52 -1 x71 -1 x90 -1 x109 -1 x128 -1 x147 -1 x166 -1 x185 -1 x204 -1 x223 -1 x242 -1 x261 >= -1
 -1 x15 -1 x34 -1 x53 -1 x72 -1 x91 -1 x110 -1 x129 -1 x148 -1 x167 -1 x186 -1 x205 -1 x224 -1 x243 -1 x262 -1 x281 >= -1
 -1 x16 -1 x35 -1 x54 -1 x73 -1 x92 -1 x111 -1 x130 -1 x149 -1 x168 -1 x187 -1 x206 -1 x225 -1 x244 -1 x263 -1 x282 -1 x301 >= -1
 -1 x17 -1 x36 -1 x55 -1 x74 -1 x93 -1 x112 -1 x131 -1 x150 -1 x169 -1 x188 -1 x207 -1 x226 -1 x245 -1 x264 -1 x283 -1 x302 -1 x321 >= -1
 -1 x18 -1 x37 -1 x56 -1 x75 -1 x94 -1 x113 -1 x132 -1 x151 -1 x170 -1 x189 -1 x208 -1 x227 -1 x246 -1 x265 -1 x284 -1 x303 -1 x322 -1 x341 >= -1
 -1 x19 -1 x38 -1 x57 -1 x76 -1 x95 -1 x114 -1 x133 -1 x152 -1 x171 -1 x190 -1 x209 -1 x228 -1 x247 -1 x266 -1 x285 -1 x304 -1 x323 -1 x342 -1 x361 >= -1
 -1 x20 -1 x39 -1 x58 -1 x77 -1 x96 -1 x115 -1 x134 -1 x153 -1 x172 -1 x191 -1 x210 -1 x229 -1 x248 -1 x267 -1 x286 -1 x305 -1 x324 -1 x343 -1 x362 -1 x381 >= -1
 -1 x40 -1 x59 -1 x78 -1 x97 -1 x116 -1 x135 -1 x154 -1 x173 -1 x192 -1 x211 -1 x230 -1 x249 -1 x268 -1 x287 -1 x306 -1 x325 -1 x344 -1 x363 -1 x382 >= -1
 -1 x60 -1 x79 -1 x98 -1 x117 -1 x136 -1 x155 -1 x174 -1 x193 -1 x212 -1 x231 -1 x250 -1 x269 -1 x288 -1 x307 -1 x326 -1 x345 -1 x364 -1 x383 >= -1
 -1 x80 -1 x99 -1 x118 -1 x137 -1 x156 -1 x175 -1 x194 -1 x213 -1 x232 -1 x251 -1 x270 -1 x289 -1 x308 -1 x327 -1 x346 -1 x365 -1 x384 >= -1
 -1 x100 -1 x119 -1 x138 -1 x157 -1 x176 -1 x195 -1 x214 -1 x233 -1 x252 -1 x271 -1 x290 -1 x309 -1 x328 -1 x347 -1 x366 -1 x385 >= -1
 -1 x120 -1 x139 -1 x158 -1 x177 -1 x196 -1 x215 -1 x234 -1 x253 -1 x272 -1 x291 -1 x310 -1 x329 -1 x348 -1 x367 -1 x386 >= -1
 -1 x140 -1 x159 -1 x178 -1 x197 -1 x216 -1 x235 -1 x254 -1 x273 -1 x292 -1 x311 -1 x330 -1 x349 -1 x368 -1 x387 >= -1
 -1 x160 -1 x179 -1 x198 -1 x217 -1 x236 -1 x255 -1 x274 -1 x293 -1 x312 -1 x331 -1 x350 -1 x369 -1 x388 >= -1
 -1 x180 -1 x199 -1 x218 -1 x237 -1 x256 -1 x275 -1 x294 -1 x313 -1 x332 -1 x351 -1 x370 -1 x389 >= -1
 -1 x200 -1 x219 -1 x238 -1 x257 -1 x276 -1 x295 -1 x314 -1 x333 -1 x352 -1 x371 -1 x390 >= -1
 -1 x220 -1 x239 -1 x258 -1 x277 -1 x296 -1 x315 -1 x334 -1 x353 -1 x372 -1 x391 >= -1
 -1 x240 -1 x259 -1 x278 -1 x297 -1 x316 -1 x335 -1 x354 -1 x373 -1 x392 >= -1
 -1 x260 -1 x279 -1 x298 -1 x317 -1 x336 -1 x355 -1 x374 -1 x393 >= -1
 -1 x280 -1 x299 -1 x318 -1 x337 -1 x356 -1 x375 -1 x394 >= -1
 -1 x300 -1 x319 -1 x338 -1 x357 -1 x376 -1 x395 >= -1
 -1 x320 -1 x339 -1 x358 -1 x377 -1 x396 >= -1
 -1 x340 -1 x359 -1 x378 -1 x397 >= -1
 -1 x360 -1 x379 -1 x398 >= -1
 -1 x380 -1 x399 >= -1
 -1 x19 -1 x40 >= -1
 -1 x18 -1 x39 -1 x60 >= -1
 -1 x17 -1 x38 -1 x59 -1 x80 >= -1
 -1 x16 -1 x37 -1 x58 -1 x79 -1 x100 >= -1
 -1 x15 -1 x36 -1 x57 -1 x78 -1 x99 -1 x120 >= -1
 -1 x14 -1 x35 -1 x56 -1 x77 -1 x98 -1 x119 -1 x140 >= -1
 -1 x13 -1 x34 -1 x55 -1 x76 -1 x97 -1 x118 -1 x139 -1 x160 >= -1
 -1 x12 -1 x33 -1 x54 -1 x75 -1 x96 -1 x117 -1 x138 -1 x159 -1 x180 >= -1
 -1 x11 -1 x32 -1 x53 -1 x74 -1 x95 -1 x116 -1 x137 -1 x158 -1 x179 -1 x200 >= -1
 -1 x10 -1 x31 -1 x52 -1 x73 -1 x94 -1 x115 -1 x136 -1 x157 -1 x178 -1 x199 -1 x220 >= -1
 -1 x9 -1 x30 -1 x51 -1 x72 -1 x93 -1 x114 -1 x135 -1 x156 -1 x177 -1 x198 -1 x219 -1 x240 >= -1
 -1 x8 -1 x29 -1 x50 -1 x71 -1 x92 -1 x113 -1 x134 -1 x155 -1 x176 -1 x197 -1 x218 -1 x239 -1 x260 >= -1
 -1 x7 -1 x28 -1 x49 -1 x70 -1 x91 -1 x112 -1 x133 -1 x154 -1 x175 -1 x196 -1 x217 -1 x238 -1 x259 -1 x280 >= -1
 -1 x6 -1 x27 -1 x48 -1 x69 -1 x90 -1 x111 -1 x132 -1 x153 -1 x174 -1 x195 -1 x216 -1 x237 -1 x258 -1 x279 -1 x300 >= -1
 -1 x5 -1 x26 -1 x47 -1 x68 -1 x89 -1 x110 -1 x131 -1 x152 -1 x173 -1 x194 -1 x215 -1 x236 -1 x257 -1 x278 -1 x299 -1 x320 >= -1
 -1 x4 -1 x25 -1 x46 -1 x67 -1 x88 -1 x109 -1 x130 -1 x151 -1 x172 -1 x193 -1 x214 -1 x235 -1 x256 -1 x277 -1 x298 -1 x319 -1 x340 >= -1
 -1 x3 -1 x24 -1 x45 -1 x66 -1 x87 -1 x108 -1 x129 -1 x150 -1 x171 -1 x192 -1 x213 -1 x234 -1 x255 -1 x276 -1 x297 -1 x318 -1 x339 -1 x360 >= -1
 -1 x2 -1 x23 -1 x44 -1 x65 -1 x86 -1 x107 -1 x128 -1 x149 -1 x170 -1 x191 -1 x212 -1 x233 -1 x254 -1 x275 -1 x296 -1 x317 -1 x338 -1 x359 -1 x380 >= -1
 -1 x1 -1 x22 -1 x43 -1 x64 -1 x85 -1 x106 -1 x127 -1 x148 -1 x169 -1 x190 -1 x211 -1 x232 -1 x253 -1 x274 -1 x295 -1 x316 -1 x337 -1 x358 -1 x379 -1 x400 >= -1
 -1 x21 -1 x42 -1 x63 -1 x84 -1 x105 -1 x126 -1 x147 -1 x168 -1 x189 -1 x210 -1 x231 -1 x252 -1 x273 -1 x294 -1 x315 -1 x336 -1 x357 -1 x378 -1 x399 >= -1
 -1 x41 -1 x62 -1 x83 -1 x104 -1 x125 -1 x146 -1 x167 -1 x188 -1 x209 -1 x230 -1 x251 -1 x272 -1 x293 -1 x314 -1 x335 -1 x356 -1 x377 -1 x398 >= -1
 -1 x61 -1 x82 -1 x103 -1 x124 -1 x145 -1 x166 -1 x187 -1 x208 -1 x229 -1 x250 -1 x271 -1 x292 -1 x313 -1 x334 -1 x355 -1 x376 -1 x397 >= -1
 -1 x81 -1 x102 -1 x123 -1 x144 -1 x165 -1 x186 -1 x207 -1 x228 -1 x249 -1 x270 -1 x291 -1 x312 -1 x333 -1 x354 -1 x375 -1 x396 >= -1
 -1 x101 -1 x122 -1 x143 -1 x164 -1 x185 -1 x206 -1 x227 -1 x248 -1 x269 -1 x290 -1 x311 -1 x332 -1 x353 -1 x374 -1 x395 >= -1
 -1 x121 -1 x142 -1 x163 -1 x184 -1 x205 -1 x226 -1 x247 -1 x268 -1 x289 -1 x310 -1 x331 -1 x352 -1 x373 -1 x394 >= -1
 -1 x141 -1 x162 -1 x183 -1 x204 -1 x225 -1 x246 -1 x267 -1 x288 -1 x309 -1 x330 -1 x351 -1 x372 -1 x393 >= -1
 -1 x161 -1 x182 -1 x203 -1 x224 -1 x245 -1 x266 -1 x287 -1 x308 -1 x329 -1 x350 -1 x371 -1 x392 >= -1
 -1 x181 -1 x202 -1 x223 -1 x244 -1 x265 -1 x286 -1 x307 -1 x328 -1 x349 -1 x370 -1 x391 >= -1
 -1 x201 -1 x222 -1 x243 -1 x264 -1 x285 -1 x306 -1 x327 -1 x348 -1 x369 -1 x390 >= -1
 -1 x221 -1 x242 -1 x263 -1 x284 -1 x305 -1 x326 -1 x347 -1 x368 -1 x389 >= -1
 -1 x241 -1 x262 -1 x283 -1 x304 -1 x325 -1 x346 -1 x367 -1 x388 >= -1
 -1 x261 -1 x282 -1 x303 -1 x324 -1 x345 -1 x366 -1 x387 >= -1
 -1 x281 -1 x302 -1 x323 -1 x344 -1 x365 -1 x386 >= -1
 -1 x301 -1 x322 -1 x343 -1 x364 -1 x385 >= -1
 -1 x321 -1 x342 -1 x363 -1 x384 >= -1
 -1 x341 -1 x362 -1 x383 >= -1
 -1 x361 -1 x382 >= -1
Binary
x264 x145 x325 x101 x361 x202 x163 x303 x350 x211 x112 x86 x246 x68 x189 x130 x255 x156 x336 x372 x273 x174 x314 x95 x77 x59 x299 x220 x144 x324 x265 x1 x221 x162 x302 x203 x131 x351 x272 x87 x247 x188 x69 x210 x315 x76 x157 x113 x373 x94 x254 x175 x337 x58 x298 x100 x360 x363 x84 x244 x161 x301 x2 x222 x103 x389 x110 x370 x266 x147 x327 x48 x288 x334 x75 x176 x271 x132 x352 x213 x154 x200 x316 x97 x257 x198 x39 x85 x245 x146 x201 x102 x362 x3 x223 x270 x111 x371 x326 x267 x388 x49 x289 x335 x96 x256 x212 x133 x353 x74 x155 x300 x177 x317 x38 x199 x160 x224 x105 x365 x141 x321 x82 x242 x4 x310 x91 x251 x206 x167 x307 x28 x170 x215 x116 x376 x152 x332 x73 x134 x354 x277 x398 x19 x260 x400 x5 x225 x166 x261 x83 x243 x104 x364 x171 x311 x72 x306 x207 x29 x90 x250 x276 x117 x377 x153 x333 x214 x135 x355 x18 x399 x140 x320 x305 x6 x226 x262 x143 x323 x204 x165 x172 x312 x93 x107 x367 x150 x330 x71 x356 x217 x80 x253 x114 x374 x275 x136 x240 x164 x304 x205 x81 x241 x142 x322 x263 x151 x331 x92 x106 x366 x7 x227 x70 x375 x216 x137 x252 x173 x313 x274 x115 x357 x8 x228 x109 x181 x42 x282 x383 x24 x394 x15 x138 x369 x51 x291 x192 x33 x358 x219 x60 x108 x368 x9 x61 x382 x43 x283 x25 x14 x395 x218 x229 x50 x290 x32 x193 x139 x359 x180 x169 x309 x190 x381 x62 x183 x26 x208 x118 x378 x279 x31 x53 x293 x396 x17 x40 x280 x168 x308 x209 x41 x281 x182 x63 x27 x397 x278 x119 x30 x191 x52 x292 x16 x379 x380 x268 x149 x329 x64 x185 x46 x286 x387 x37 x178 x318 x390 x11 x55 x295 x196 x99 x259 x20 x287 x148 x328 x21 x184 x65 x386 x47 x36 x197 x98 x269 x10 x391 x54 x294 x258 x179 x319 x187 x88 x248 x22 x44 x284 x385 x66 x297 x158 x338 x392 x13 x194 x35 x57 x79 x67 x89 x249 x23 x384 x45 x285 x186 x296 x78 x159 x12 x393 x34 x195 x56 x339 x129 x349 x239 x128 x348 x238 x127 x347 x237 x126 x346 x236 x125 x345 x235 x124 x344 x234 x123 x343 x233 x122 x342 x232 x121 x341 x231 x230 x120 x340 
